100	1
0 43
0 72
0 78
0 22
0 66
0 75
0 77
0 27
0 72
0 66
0 24
0 11
0 33
0 73
0 90
0 15
0 37
0 53
0 26
0 69
0 86
0 28
0 38
0 7
0 28
0 85
0 37
0 9
0 61
0 68
0 63
0 89
0 3
0 9
0 12
0 92
0 4
0 81
0 59
0 86
0 4
0 79
0 99
0 33
0 18
0 75
0 11
0 80
0 31
0 2
0 11
0 64
0 45
0 17
0 22
0 39
0 79
0 57
0 54
0 23
0 25
0 55
0 11
0 7
0 15
0 10
0 21
0 91
0 24
0 9
0 82
0 36
0 21
0 91
0 78
0 17
0 24
0 24
0 15
0 46
0 53
0 10
0 14
0 8
0 81
0 9
0 51
0 71
0 32
0 57
0 81
0 52
0 54
0 29
0 6
0 93
0 62
0 31
0 96
0 99
